2 100 1148
10 3 3 7 3 4 4 9 4 7
3 1
7 1 1
9
0 40.0 50.0 0.0 0.0 0 240
2 25.0 85.0 10.0 20.0 0 191 54 0 0 0 0 0 0 1 0 0 0
3 22.0 75.0 10.0 30.0 0 199 84 0 0 0 0 0 0 0 0 0 1
4 22.0 85.0 10.0 10.0 0 190 97 0 0 1 0 0 0 1 1 1 0
5 20.0 80.0 10.0 40.0 141 171 3 0 0 0 0 0 0 0 1 0 1
6 20.0 85.0 10.0 20.0 0 189 74 0 1 1 1 1 0 1 0 1 0
7 18.0 75.0 10.0 20.0 0 196 4 1 0 0 1 0 0 0 1 0 0
8 15.0 75.0 10.0 20.0 0 194 79 0 0 0 1 0 0 0 1 0 0
9 15.0 80.0 10.0 10.0 91 121 14 1 1 0 0 0 0 0 0 0 0
10 10.0 35.0 10.0 20.0 91 121 17 0 1 0 1 0 0 0 0 0 0
11 10.0 40.0 10.0 30.0 0 198 95 1 1 0 0 0 0 0 0 1 1
12 8.0 40.0 10.0 40.0 59 89 86 0 0 0 1 1 0 0 1 0 0
13 8.0 45.0 10.0 20.0 0 197 12 0 0 1 0 0 0 0 0 0 1
14 5.0 35.0 10.0 10.0 142 172 48 0 1 0 0 0 0 0 0 1 1
15 5.0 45.0 10.0 10.0 0 194 48 0 0 0 0 1 1 1 0 0 0
16 2.0 40.0 10.0 20.0 58 88 71 1 0 0 0 0 1 0 1 0 0
17 0.0 40.0 10.0 20.0 0 188 3 1 0 1 0 0 0 0 0 0 0
18 0.0 45.0 10.0 20.0 0 189 55 0 1 0 0 0 1 0 1 0 0
19 44.0 5.0 10.0 20.0 0 184 58 1 0 0 0 0 0 1 0 0 1
20 42.0 10.0 10.0 40.0 0 189 87 1 0 1 0 1 0 0 0 1 0
21 42.0 15.0 10.0 10.0 0 194 51 0 0 0 1 0 0 0 1 0 0
22 40.0 5.0 10.0 10.0 0 185 45 0 0 0 0 1 0 0 0 0 1
23 40.0 15.0 10.0 40.0 0 195 7 1 0 0 0 0 0 1 0 0 1
24 38.0 5.0 10.0 30.0 65 95 90 0 0 0 0 0 1 0 0 0 0
25 38.0 15.0 10.0 10.0 0 194 80 0 0 0 0 1 0 0 0 0 0
26 35.0 5.0 10.0 20.0 154 184 43 0 0 0 0 0 1 0 0 0 0
27 95.0 30.0 10.0 30.0 0 171 18 1 1 0 1 1 0 1 0 0 0
28 95.0 35.0 10.0 20.0 0 172 16 0 1 0 0 0 0 0 1 1 0
29 92.0 30.0 10.0 10.0 0 174 71 0 0 0 0 0 0 0 0 1 0
30 90.0 35.0 10.0 10.0 0 177 96 0 0 1 0 0 0 0 0 1 0
31 88.0 30.0 10.0 10.0 0 178 5 0 0 0 1 0 0 1 0 0 0
32 88.0 35.0 10.0 20.0 0 179 0 1 0 1 0 0 0 0 0 0 1
33 87.0 30.0 10.0 10.0 0 178 50 1 0 0 0 0 0 0 0 0 0
34 85.0 25.0 10.0 10.0 0 178 99 0 0 0 0 0 0 0 0 0 1
35 85.0 35.0 10.0 30.0 0 182 86 0 0 0 0 0 1 0 0 1 0
36 67.0 85.0 10.0 20.0 0 185 54 1 0 0 0 1 0 1 0 0 0
37 65.0 85.0 10.0 40.0 0 186 23 0 0 0 1 1 0 1 0 0 0
38 65.0 82.0 10.0 10.0 0 189 91 0 1 0 0 1 1 0 0 0 0
39 62.0 80.0 10.0 30.0 75 105 9 0 1 0 0 0 1 0 0 0 0
40 60.0 80.0 10.0 10.0 0 193 83 1 0 0 1 1 1 1 1 0 1
41 60.0 85.0 10.0 30.0 0 189 83 0 0 0 0 0 0 1 1 0 1
42 58.0 75.0 10.0 20.0 0 199 67 0 0 1 0 0 0 1 0 0 0
43 55.0 80.0 10.0 10.0 0 196 91 1 0 0 0 0 1 0 0 0 1
44 55.0 85.0 10.0 20.0 0 191 0 0 0 0 1 0 1 0 0 0 1
45 55.0 82.0 10.0 10.0 64 94 64 0 1 1 0 0 0 0 1 0 0
46 20.0 82.0 10.0 10.0 0 192 81 1 1 0 0 0 0 0 0 0 1
47 18.0 80.0 10.0 10.0 0 192 54 1 0 1 0 0 1 0 1 0 0
48 2.0 45.0 10.0 10.0 0 191 56 0 0 0 0 0 0 0 0 1 0
49 42.0 5.0 10.0 10.0 0 184 69 0 0 0 0 0 0 0 1 0 1
50 42.0 12.0 10.0 10.0 0 191 18 0 0 0 0 0 1 0 0 0 0
51 72.0 35.0 10.0 30.0 0 194 22 0 0 0 0 0 0 1 0 0 0
52 55.0 20.0 10.0 19.0 0 196 2 0 1 0 0 0 1 0 0 1 0
53 25.0 30.0 10.0 3.0 0 205 84 0 0 0 1 1 0 1 0 1 0
54 20.0 50.0 10.0 5.0 91 121 81 0 0 0 0 0 1 0 0 0 0
55 55.0 60.0 10.0 16.0 0 211 64 0 1 0 0 1 0 1 0 0 0
56 30.0 60.0 10.0 16.0 140 170 31 1 0 0 0 0 0 0 1 1 0
57 50.0 35.0 10.0 19.0 0 211 47 0 1 0 1 0 0 0 0 1 0
58 30.0 25.0 10.0 23.0 0 203 13 0 0 0 1 0 0 0 0 0 0
59 15.0 10.0 10.0 20.0 152 182 82 0 0 0 0 0 1 0 0 0 0
60 10.0 20.0 10.0 19.0 0 187 13 0 0 1 0 0 0 0 1 0 0
61 15.0 60.0 10.0 17.0 0 203 30 0 1 0 1 0 0 0 0 0 1
62 45.0 65.0 10.0 9.0 0 214 29 0 0 0 1 0 0 0 0 1 0
63 65.0 35.0 10.0 3.0 52 82 14 0 0 0 0 0 0 0 0 1 0
64 65.0 20.0 10.0 6.0 0 190 94 0 0 0 0 0 1 0 0 0 0
65 45.0 30.0 10.0 17.0 0 209 32 0 0 0 0 0 1 0 0 0 0
66 35.0 40.0 10.0 16.0 0 218 94 1 0 0 0 0 1 0 1 0 0
67 41.0 37.0 10.0 16.0 0 216 60 0 0 0 0 0 0 0 1 0 0
68 64.0 42.0 10.0 9.0 70 100 77 0 0 0 0 0 0 1 1 0 0
69 40.0 60.0 10.0 21.0 0 220 20 1 1 0 0 0 0 0 0 0 0
70 31.0 52.0 10.0 27.0 41 71 67 0 0 0 0 0 1 0 0 0 0
71 35.0 69.0 10.0 23.0 0 210 68 0 0 0 1 0 0 1 1 0 1
72 65.0 55.0 10.0 14.0 0 204 5 0 0 0 0 0 0 0 0 0 1
73 63.0 65.0 10.0 8.0 0 202 77 0 0 0 0 1 0 0 0 0 0
74 2.0 60.0 10.0 5.0 0 190 14 1 0 1 0 0 0 0 1 0 0
75 20.0 20.0 10.0 8.0 141 171 53 0 0 0 1 0 0 0 0 0 0
76 5.0 5.0 10.0 16.0 0 172 41 0 0 0 0 0 0 0 0 0 1
77 60.0 12.0 10.0 31.0 75 105 47 0 0 0 0 0 0 0 1 0 0
78 23.0 3.0 10.0 7.0 150 180 99 0 0 0 0 0 1 0 0 0 0
79 8.0 56.0 10.0 27.0 0 197 40 0 0 0 0 0 1 0 1 0 0
80 6.0 68.0 10.0 30.0 89 119 43 1 0 0 0 0 0 0 0 0 0
81 47.0 47.0 10.0 13.0 0 222 33 0 0 0 0 1 0 0 0 1 1
82 49.0 58.0 10.0 10.0 0 217 26 1 0 0 1 0 0 0 0 0 1
83 27.0 43.0 10.0 9.0 0 215 52 0 0 0 0 1 0 0 0 0 0
84 37.0 31.0 10.0 14.0 0 210 82 1 0 0 0 0 1 1 1 0 0
85 57.0 29.0 10.0 18.0 96 126 56 0 0 0 0 0 1 0 0 0 0
86 63.0 23.0 10.0 2.0 0 194 26 1 0 1 0 0 0 0 0 0 1
87 21.0 24.0 10.0 28.0 0 197 42 0 0 0 0 0 0 0 0 1 0
88 12.0 24.0 10.0 13.0 90 120 88 0 0 0 0 0 1 0 0 0 0
89 24.0 58.0 10.0 19.0 0 212 16 0 0 0 0 0 0 1 1 0 0
90 67.0 5.0 10.0 25.0 0 177 29 0 0 1 0 0 0 0 0 0 1
91 37.0 47.0 10.0 6.0 0 225 69 0 0 0 1 0 0 0 1 0 0
92 49.0 42.0 10.0 13.0 0 217 43 0 1 0 0 0 0 0 0 0 1
93 53.0 43.0 10.0 14.0 14 44 98 0 1 0 1 0 1 0 0 1 0
94 61.0 52.0 10.0 3.0 0 208 84 0 1 0 0 0 1 0 0 0 0
95 57.0 48.0 10.0 23.0 0 212 73 1 0 0 1 0 1 0 1 1 0
96 56.0 37.0 10.0 6.0 0 209 61 0 0 1 0 0 0 0 0 1 0
97 55.0 54.0 10.0 26.0 0 214 50 0 0 1 1 1 0 0 0 0 0
98 4.0 18.0 10.0 35.0 0 181 51 1 0 0 0 0 0 0 1 0 0
99 26.0 52.0 10.0 9.0 0 215 67 0 0 0 1 0 0 0 0 0 0
100 26.0 35.0 10.0 15.0 77 107 13 0 1 0 0 0 0 0 0 0 0
101 31.0 67.0 10.0 3.0 180 210 20 0 0 1 0 0 1 0 1 0 0